0 61 
1 63 
2 63 
3 66 
4 66 
5 68 
6 69 
7 68 
8 67 
9 64 
10 64 
11 63 
12 62 
13 60 
14 58 
15 57 
16 56 
17 54 
18 53 
19 52 
20 52 
21 51 
22 52 
23 50 
24 53 
25 51 
26 49 
27 47 
28 46 
29 46 
30 46 
31 44 
32 43 
33 41 
34 39 
35 37 
36 34 
37 29 
38 26 
39 23 
40 25 
41 23 
42 26 
43 25 
44 23 
45 24 
46 22 
47 20 
48 20 
49 20 
50 18 
51 17 
52 15 
53 14 
54 13 
55 13 
56 13 
57 12 
58 12 
59 12 
60 11 
61 10 
62 9 
63 7 
64 6 
65 5 
66 5 
67 4 
68 4 
69 3 
70 3 
71 2 
72 1 
73 0 
74 0 

